NAME: random problem
TYPE: MTSP
COMMENT: MTSP problem for MRS UAV summer school
DIMENSION: 20
NUMBER_OF_ROBOTS: 2
START_TARGET_INDEXES: 1, 2
NEIGHBORHOOD_RADIUS: 2
EDGE_WEIGHT_TYPE: EUC_2D
NODE_COORD_SECTION
1 15.0 -21.0
2 -5.0 -25.0
3 -9.9 8.0
4 16.2 12.7
5 -31.4 -18.8
6 25.3 -5.8
7 -2.9 10.9
8 3.1 -2.9
9 29.7 -17.1
10 9.7 7.1
11 -8.8 -6.3
12 11.3 -13.3
13 -11.3 -31.9
14 38.5 -14.2
15 27.3 0.8
16 15.2 -24.7
17 10.4 -7.1
18 8.6 15.3
19 -28.3 2.2
20 -22.2 -4.1
EOF
